tMoTe2
    1.0000000000000000
   44.9190121314303568  -25.9340037458133850    0.0000000000000000
   44.9190121314303568   25.9340037458133850    0.0000000000000000
    0.0000000000000000    0.0000000000000000   30.6301151979793111
Mo   Te
434  868
Direct
  0.0768049155145929  0.0030721966205837  0.6166108331837824
  0.0353302611367127  0.0814132104454686  0.6166108331837824
  0.1136712749615975  0.0445468509984640  0.6166108331837824
  0.0721966205837173  0.1228878648233487  0.6166108331837824
  0.0307219662058371  0.2012288786482336  0.6166108331837824
  0.1920122887864823  0.0076804915514594  0.6166108331837824
  0.1505376344086021  0.0860215053763442  0.6166108331837824
  0.1090629800307219  0.1643625192012290  0.6166108331837824
  0.0675883256528417  0.2427035330261138  0.6166108331837824
  0.0261136712749615  0.3210445468509985  0.6166108331837824
  0.2288786482334869  0.0491551459293396  0.6166108331837824
  0.1874039938556067  0.1274961597542243  0.6166108331837824
  0.1459293394777265  0.2058371735791092  0.6166108331837824
  0.1044546850998463  0.2841781874039940  0.6166108331837824
  0.0629800307219661  0.3625192012288788  0.6166108331837824
  0.0215053763440858  0.4408602150537636  0.6166108331837824
  0.3072196620583717  0.0122887864823350  0.6166108331837824
  0.2657450076804915  0.0906298003072198  0.6166108331837824
  0.2242703533026113  0.1689708141321045  0.6166108331837824
  0.1827956989247310  0.2473118279569894  0.6166108331837824
  0.1413210445468508  0.3256528417818741  0.6166108331837824
  0.0998463901689707  0.4039938556067590  0.6166108331837824
  0.0583717357910904  0.4823348694316438  0.6166108331837824
  0.0168970814132102  0.5606758832565286  0.6166108331837824
  0.3440860215053763  0.0537634408602152  0.6166108331837824
  0.3026113671274961  0.1321044546851000  0.6166108331837824
  0.2611367127496159  0.2104454685099849  0.6166108331837824
  0.2196620583717357  0.2887864823348696  0.6166108331837824
  0.1781874039938555  0.3671274961597544  0.6166108331837824
  0.1367127496159753  0.4454685099846392  0.6166108331837824
  0.0952380952380950  0.5238095238095239  0.6166108331837824
  0.0537634408602149  0.6021505376344087  0.6166108331837824
  0.0122887864823346  0.6804915514592937  0.6166108331837824
  0.4224270353302611  0.0168970814132106  0.6166108331837824
  0.3809523809523809  0.0952380952380954  0.6166108331837824
  0.3394777265745007  0.1735791090629802  0.6166108331837824
  0.2980030721966205  0.2519201228878650  0.6166108331837824
  0.2565284178187403  0.3302611367127498  0.6166108331837824
  0.2150537634408601  0.4086021505376346  0.6166108331837824
  0.1735791090629798  0.4869431643625194  0.6166108331837824
  0.1321044546850997  0.5652841781874042  0.6166108331837824
  0.0906298003072195  0.6436251920122890  0.6166108331837824
  0.0491551459293392  0.7219662058371737  0.6166108331837824
  0.0076804915514589  0.8003072196620586  0.6166108331837824
  0.4592933947772657  0.0583717357910908  0.6166108331837824
  0.4178187403993855  0.1367127496159756  0.6166108331837824
  0.3763440860215052  0.2150537634408604  0.6166108331837824
  0.3348694316436250  0.2933947772657452  0.6166108331837824
  0.2933947772657449  0.3717357910906300  0.6166108331837824
  0.2519201228878646  0.4500768049155149  0.6166108331837824
  0.2104454685099844  0.5284178187403996  0.6166108331837824
  0.1689708141321042  0.6067588325652844  0.6166108331837824
  0.1274961597542240  0.6850998463901692  0.6166108331837824
  0.0860215053763438  0.7634408602150541  0.6166108331837824
  0.0445468509984635  0.8417818740399389  0.6166108331837824
  0.0030721966205833  0.9201228878648237  0.6166108331837824
  0.5376344086021504  0.0215053763440862  0.6166108331837824
  0.4961597542242702  0.0998463901689710  0.6166108331837824
  0.4546850998463901  0.1781874039938558  0.6166108331837824
  0.4132104454685098  0.2565284178187406  0.6166108331837824
  0.3717357910906297  0.3348694316436255  0.6166108331837824
  0.3302611367127494  0.4132104454685102  0.6166108331837824
  0.2887864823348692  0.4915514592933950  0.6166108331837824
  0.2473118279569889  0.5698924731182797  0.6166108331837824
  0.2058371735791087  0.6482334869431645  0.6166108331837824
  0.1643625192012286  0.7265745007680494  0.6166108331837824
  0.1228878648233483  0.8049155145929342  0.6166108331837824
  0.0814132104454680  0.8832565284178190  0.6166108331837824
  0.0399385560675878  0.9615975422427039  0.6166108331837824
  0.5745007680491550  0.0629800307219664  0.6166108331837824
  0.5330261136712748  0.1413210445468512  0.6166108331837824
  0.4915514592933946  0.2196620583717360  0.6166108331837824
  0.4500768049155144  0.2980030721966209  0.6166108331837824
  0.4086021505376342  0.3763440860215055  0.6166108331837824
  0.3671274961597540  0.4546850998463904  0.6166108331837824
  0.3256528417818737  0.5330261136712752  0.6166108331837824
  0.2841781874039935  0.6113671274961600  0.6166108331837824
  0.2427035330261133  0.6897081413210446  0.6166108331837824
  0.2012288786482331  0.7680491551459295  0.6166108331837824
  0.1597542242703530  0.8463901689708144  0.6166108331837824
  0.1182795698924726  0.9247311827956992  0.6166108331837824
  0.6528417818740400  0.0261136712749618  0.6166108331837824
  0.6113671274961596  0.1044546850998467  0.6166108331837824
  0.5698924731182794  0.1827956989247314  0.6166108331837824
  0.5284178187403993  0.2611367127496163  0.6166108331837824
  0.4869431643625190  0.3394777265745011  0.6166108331837824
  0.4454685099846388  0.4178187403993858  0.6166108331837824
  0.4039938556067586  0.4961597542242706  0.6166108331837824
  0.3625192012288783  0.5745007680491555  0.6166108331837824
  0.3210445468509981  0.6528417818740402  0.6166108331837824
  0.2795698924731180  0.7311827956989251  0.6166108331837824
  0.2380952380952378  0.8095238095238099  0.6166108331837824
  0.1966205837173576  0.8878648233486947  0.6166108331837824
  0.1551459293394773  0.9662058371735793  0.6166108331837824
  0.6897081413210444  0.0675883256528420  0.6166108331837824
  0.6482334869431642  0.1459293394777269  0.6166108331837824
  0.6067588325652840  0.2242703533026116  0.6166108331837824
  0.5652841781874038  0.3026113671274964  0.6166108331837824
  0.5238095238095235  0.3809523809523813  0.6166108331837824
  0.4823348694316433  0.4592933947772660  0.6166108331837824
  0.4408602150537632  0.5376344086021508  0.6166108331837824
  0.3993855606758830  0.6159754224270356  0.6166108331837824
  0.3579109062980027  0.6943164362519204  0.6166108331837824
  0.3164362519201225  0.7726574500768052  0.6166108331837824
  0.2749615975422424  0.8509984639016900  0.6166108331837824
  0.2334869431643621  0.9293394777265748  0.6166108331837824
  0.7680491551459291  0.0307219662058374  0.6166108331837824
  0.7265745007680490  0.1090629800307222  0.6166108331837824
  0.6850998463901686  0.1874039938556070  0.6166108331837824
  0.6436251920122885  0.2657450076804918  0.6166108331837824
  0.6021505376344084  0.3440860215053766  0.6166108331837824
  0.5606758832565282  0.4224270353302615  0.6166108331837824
  0.5192012288786479  0.5007680491551463  0.6166108331837824
  0.4777265745007678  0.5791090629800311  0.6166108331837824
  0.4362519201228875  0.6574500768049159  0.6166108331837824
  0.3947772657450073  0.7357910906298005  0.6166108331837824
  0.3533026113671271  0.8141321044546854  0.6166108331837824
  0.3118279569892469  0.8924731182795701  0.6166108331837824
  0.2703533026113668  0.9708141321044551  0.6166108331837824
  0.8049155145929339  0.0721966205837177  0.6166108331837824
  0.7634408602150536  0.1505376344086025  0.6166108331837824
  0.7219662058371734  0.2288786482334873  0.6166108331837824
  0.6804915514592932  0.3072196620583721  0.6166108331837824
  0.6390168970814131  0.3855606758832569  0.6166108331837824
  0.5975422427035327  0.4639016897081418  0.6166108331837824
  0.5560675883256525  0.5422427035330265  0.6166108331837824
  0.5145929339477724  0.6205837173579112  0.6166108331837824
  0.4731182795698922  0.6989247311827961  0.6166108331837824
  0.4316436251920119  0.7772657450076808  0.6166108331837824
  0.3901689708141317  0.8556067588325657  0.6166108331837824
  0.3486943164362516  0.9339477726574505  0.6166108331837824
  0.8832565284178187  0.0353302611367132  0.6166108331837824
  0.8417818740399383  0.1136712749615979  0.6166108331837824
  0.8003072196620582  0.1920122887864827  0.6166108331837824
  0.7588325652841780  0.2703533026113675  0.6166108331837824
  0.7173579109062977  0.3486943164362523  0.6166108331837824
  0.6758832565284176  0.4270353302611370  0.6166108331837824
  0.6344086021505374  0.5053763440860218  0.6166108331837824
  0.5929339477726571  0.5837173579109066  0.6166108331837824
  0.5514592933947770  0.6620583717357914  0.6166108331837824
  0.5099846390168968  0.7403993855606763  0.6166108331837824
  0.4685099846390165  0.8187403993855612  0.6166108331837824
  0.4270353302611363  0.8970814132104459  0.6166108331837824
  0.3855606758832562  0.9754224270353307  0.6166108331837824
  0.9201228878648231  0.0768049155145933  0.6166108331837824
  0.8786482334869430  0.1551459293394781  0.6166108331837824
  0.8371735791090629  0.2334869431643629  0.6166108331837824
  0.7956989247311825  0.3118279569892476  0.6166108331837824
  0.7542242703533024  0.3901689708141324  0.6166108331837824
  0.7127496159754221  0.4685099846390173  0.6166108331837824
  0.6712749615975421  0.5468509984639021  0.6166108331837824
  0.6298003072196617  0.6251920122887868  0.6166108331837824
  0.5883256528417815  0.7035330261136717  0.6166108331837824
  0.5468509984639014  0.7818740399385565  0.6166108331837824
  0.5053763440860211  0.8602150537634411  0.6166108331837824
  0.4639016897081409  0.9385560675883261  0.6166108331837824
  0.9984639016897079  0.0399385560675887  0.6166108331837824
  0.9569892473118279  0.1182795698924735  0.6166108331837824
  0.9155145929339475  0.1966205837173582  0.6166108331837824
  0.8740399385560673  0.2749615975422430  0.6166108331837824
  0.8325652841781871  0.3533026113671279  0.6166108331837824
  0.7910906298003069  0.4316436251920126  0.6166108331837824
  0.7496159754224268  0.5099846390168974  0.6166108331837824
  0.7081413210445465  0.5883256528417823  0.6166108331837824
  0.6666666666666663  0.6666666666666671  0.6166108331837824
  0.6251920122887860  0.7450076804915517  0.6166108331837824
  0.5837173579109060  0.8233486943164366  0.6166108331837824
  0.5422427035330258  0.9016897081413215  0.6166108331837824
  0.5007680491551456  0.9800307219662064  0.6166108331837824
  0.9938556067588323  0.1597542242703536  0.6166108331837824
  0.9523809523809521  0.2380952380952384  0.6166108331837824
  0.9109062980030720  0.3164362519201233  0.6166108331837824
  0.8694316436251915  0.3947772657450080  0.6166108331837824
  0.8279569892473114  0.4731182795698929  0.6166108331837824
  0.7864823348694312  0.5514592933947776  0.6166108331837824
  0.7450076804915511  0.6298003072196625  0.6166108331837824
  0.7035330261136709  0.7081413210445472  0.6166108331837824
  0.6620583717357907  0.7864823348694321  0.6166108331837824
  0.6205837173579104  0.8648233486943169  0.6166108331837824
  0.5791090629800304  0.9431643625192017  0.6166108331837824
  0.9892473118279567  0.2795698924731187  0.6166108331837824
  0.9477726574500765  0.3579109062980035  0.6166108331837824
  0.9062980030721963  0.4362519201228883  0.6166108331837824
  0.8648233486943161  0.5145929339477732  0.6166108331837824
  0.8233486943164360  0.5929339477726580  0.6166108331837824
  0.7818740399385558  0.6712749615975429  0.6166108331837824
  0.7403993855606756  0.7496159754224277  0.6166108331837824
  0.6989247311827954  0.8279569892473124  0.6166108331837824
  0.6574500768049152  0.9062980030721971  0.6166108331837824
  0.6159754224270351  0.9846390168970820  0.6166108331837824
  0.9846390168970811  0.3993855606758837  0.6166108331837824
  0.9431643625192008  0.4777265745007685  0.6166108331837824
  0.9016897081413205  0.5560675883256532  0.6166108331837824
  0.8602150537634404  0.6344086021505381  0.6166108331837824
  0.8187403993855602  0.7127496159754229  0.6166108331837824
  0.7772657450076801  0.7910906298003076  0.6166108331837824
  0.7357910906297999  0.8694316436251924  0.6166108331837824
  0.6943164362519196  0.9477726574500771  0.6166108331837824
  0.9800307219662056  0.5192012288786488  0.6166108331837824
  0.9385560675883253  0.5975422427035337  0.6166108331837824
  0.8970814132104452  0.6758832565284183  0.6166108331837824
  0.8556067588325649  0.7542242703533032  0.6166108331837824
  0.8141321044546848  0.8325652841781881  0.6166108331837824
  0.7726574500768045  0.9109062980030728  0.6166108331837824
  0.7311827956989242  0.9892473118279576  0.6166108331837824
  0.9754224270353301  0.6390168970814140  0.6166108331837824
  0.9339477726574499  0.7173579109062987  0.6166108331837824
  0.8924731182795695  0.7956989247311834  0.6166108331837824
  0.8509984639016894  0.8740399385560683  0.6166108331837824
  0.8095238095238092  0.9523809523809530  0.6166108331837824
  0.9708141321044543  0.7588325652841786  0.6166108331837824
  0.9293394777265739  0.8371735791090635  0.6166108331837824
  0.8878648233486938  0.9155145929339484  0.6166108331837824
  0.8463901689708135  0.9938556067588331  0.6166108331837824
  0.9662058371735787  0.8786482334869438  0.6166108331837824
  0.9247311827956985  0.9569892473118287  0.6166108331837824
  0.9615975422427032  0.9984639016897090  0.6166108331837824
  0.0015360983102919  0.0384024577572965  0.3833891668163061
  0.0430107526881721  0.0752688172043010  0.3833891668163061
  0.0061443932411675  0.1536098310291858  0.3833891668163061
  0.1213517665130569  0.0337941628264209  0.3833891668163061
  0.0844854070660523  0.1121351766513056  0.3833891668163061
  0.0476190476190477  0.1904761904761904  0.3833891668163061
  0.0107526881720431  0.2688172043010752  0.3833891668163061
  0.1628264208909371  0.0706605222734254  0.3833891668163061
  0.1259600614439325  0.1490015360983102  0.3833891668163061
  0.0890937019969279  0.2273425499231950  0.3833891668163061
  0.0522273425499234  0.3056835637480798  0.3833891668163061
  0.0153609831029187  0.3840245775729647  0.3833891668163061
  0.2411674347158219  0.0291858678955452  0.3833891668163061
  0.2043010752688173  0.1075268817204300  0.3833891668163061
  0.1674347158218127  0.1858678955453148  0.3833891668163061
  0.1305683563748081  0.2642089093701996  0.3833891668163061
  0.0937019969278035  0.3425499231950844  0.3833891668163061
  0.0568356374807990  0.4208909370199693  0.3833891668163061
  0.0199692780337944  0.4992319508448539  0.3833891668163061
  0.2826420890937021  0.0660522273425498  0.3833891668163061
  0.2457757296466975  0.1443932411674346  0.3833891668163061
  0.2089093701996929  0.2227342549923194  0.3833891668163061
  0.1720430107526883  0.3010752688172041  0.3833891668163061
  0.1351766513056837  0.3794162826420889  0.3833891668163061
  0.0983102918586792  0.4577572964669738  0.3833891668163061
  0.0614439324116745  0.5360983102918585  0.3833891668163061
  0.0245775729646700  0.6144393241167433  0.3833891668163061
  0.3609831029185869  0.0245775729646696  0.3833891668163061
  0.3241167434715824  0.1029185867895544  0.3833891668163061
  0.2872503840245778  0.1812596006144392  0.3833891668163061
  0.2503840245775731  0.2596006144393240  0.3833891668163061
  0.2135176651305686  0.3379416282642088  0.3833891668163061
  0.1766513056835640  0.4162826420890935  0.3833891668163061
  0.1397849462365593  0.4946236559139783  0.3833891668163061
  0.1029185867895549  0.5729646697388632  0.3833891668163061
  0.0660522273425502  0.6513056835637480  0.3833891668163061
  0.0291858678955456  0.7296466973886327  0.3833891668163061
  0.4024577572964671  0.0614439324116742  0.3833891668163061
  0.3655913978494626  0.1397849462365590  0.3833891668163061
  0.3287250384024580  0.2181259600614438  0.3833891668163061
  0.2918586789554534  0.2964669738863286  0.3833891668163061
  0.2549923195084488  0.3748079877112134  0.3833891668163061
  0.2181259600614442  0.4531490015360982  0.3833891668163061
  0.1812596006144397  0.5314900153609831  0.3833891668163061
  0.1443932411674350  0.6098310291858677  0.3833891668163061
  0.1075268817204305  0.6881720430107525  0.3833891668163061
  0.0706605222734258  0.7665130568356373  0.3833891668163061
  0.0337941628264213  0.8448540706605222  0.3833891668163061
  0.4807987711213519  0.0199692780337940  0.3833891668163061
  0.4439324116743473  0.0983102918586787  0.3833891668163061
  0.4070660522273427  0.1766513056835636  0.3833891668163061
  0.3701996927803382  0.2549923195084484  0.3833891668163061
  0.3333333333333335  0.3333333333333331  0.3833891668163061
  0.2964669738863290  0.4116743471582179  0.3833891668163061
  0.2596006144393244  0.4900153609831028  0.3833891668163061
  0.2227342549923198  0.5683563748079876  0.3833891668163061
  0.1858678955453152  0.6466973886328722  0.3833891668163061
  0.1490015360983107  0.7250384024577571  0.3833891668163061
  0.1121351766513061  0.8033794162826420  0.3833891668163061
  0.0752688172043015  0.8817204301075267  0.3833891668163061
  0.0384024577572969  0.9600614439324114  0.3833891668163061
  0.5222734254992321  0.0568356374807986  0.3833891668163061
  0.4854070660522275  0.1351766513056833  0.3833891668163061
  0.4485407066052229  0.2135176651305682  0.3833891668163061
  0.4116743471582183  0.2918586789554530  0.3833891668163061
  0.3748079877112138  0.3701996927803378  0.3833891668163061
  0.3379416282642093  0.4485407066052225  0.3833891668163061
  0.3010752688172045  0.5268817204301073  0.3833891668163061
  0.2642089093702000  0.6052227342549922  0.3833891668163061
  0.2273425499231954  0.6835637480798769  0.3833891668163061
  0.1904761904761909  0.7619047619047618  0.3833891668163061
  0.1536098310291862  0.8402457757296464  0.3833891668163061
  0.1167434715821817  0.9185867895545313  0.3833891668163061
  0.0798771121351771  0.9969278033794161  0.3833891668163061
  0.6006144393241168  0.0153609831029183  0.3833891668163061
  0.5637480798771123  0.0937019969278031  0.3833891668163061
  0.5268817204301077  0.1720430107526879  0.3833891668163061
  0.4900153609831031  0.2503840245775728  0.3833891668163061
  0.4531490015360985  0.3287250384024575  0.3833891668163061
  0.4162826420890939  0.4070660522273423  0.3833891668163061
  0.3794162826420893  0.4854070660522272  0.3833891668163061
  0.3425499231950847  0.5637480798771118  0.3833891668163061
  0.3056835637480803  0.6420890937019967  0.3833891668163061
  0.2688172043010756  0.7204301075268814  0.3833891668163061
  0.2319508448540711  0.7987711213517662  0.3833891668163061
  0.1950844854070665  0.8771121351766512  0.3833891668163061
  0.1582181259600618  0.9554531490015359  0.3833891668163061
  0.6420890937019970  0.0522273425499230  0.3833891668163061
  0.6052227342549926  0.1305683563748078  0.3833891668163061
  0.5683563748079880  0.2089093701996925  0.3833891668163061
  0.5314900153609834  0.2872503840245774  0.3833891668163061
  0.4946236559139788  0.3655913978494621  0.3833891668163061
  0.4577572964669742  0.4439324116743469  0.3833891668163061
  0.4208909370199697  0.5222734254992317  0.3833891668163061
  0.3840245775729650  0.6006144393241165  0.3833891668163061
  0.3471582181259605  0.6789554531490014  0.3833891668163061
  0.3102918586789559  0.7572964669738861  0.3833891668163061
  0.2734254992319513  0.8356374807987710  0.3833891668163061
  0.2365591397849467  0.9139784946236560  0.3833891668163061
  0.1996927803379421  0.9923195084485407  0.3833891668163061
  0.7204301075268817  0.0107526881720427  0.3833891668163061
  0.6835637480798773  0.0890937019969276  0.3833891668163061
  0.6466973886328727  0.1674347158218124  0.3833891668163061
  0.6098310291858682  0.2457757296466971  0.3833891668163061
  0.5729646697388635  0.3241167434715819  0.3833891668163061
  0.5360983102918589  0.4024577572964667  0.3833891668163061
  0.4992319508448544  0.4807987711213515  0.3833891668163061
  0.4623655913978498  0.5591397849462364  0.3833891668163061
  0.4254992319508452  0.6374807987711211  0.3833891668163061
  0.3886328725038407  0.7158218125960060  0.3833891668163061
  0.3517665130568360  0.7941628264208906  0.3833891668163061
  0.3149001536098316  0.8725038402457754  0.3833891668163061
  0.2780337941628268  0.9508448540706604  0.3833891668163061
  0.7619047619047620  0.0476190476190473  0.3833891668163061
  0.7250384024577575  0.1259600614439322  0.3833891668163061
  0.6881720430107531  0.2043010752688169  0.3833891668163061
  0.6513056835637483  0.2826420890937016  0.3833891668163061
  0.6144393241167438  0.3609831029185865  0.3833891668163061
  0.5775729646697392  0.4393241167434713  0.3833891668163061
  0.5407066052227346  0.5176651305683561  0.3833891668163061
  0.5038402457757301  0.5960061443932410  0.3833891668163061
  0.4669738863287254  0.6743471582181257  0.3833891668163061
  0.4301075268817208  0.7526881720430104  0.3833891668163061
  0.3932411674347163  0.8310291858678952  0.3833891668163061
  0.3563748079877118  0.9093701996927800  0.3833891668163061
  0.3195084485407071  0.9877112135176649  0.3833891668163061
  0.8402457757296470  0.0061443932411672  0.3833891668163061
  0.8033794162826422  0.0844854070660519  0.3833891668163061
  0.7665130568356378  0.1628264208909368  0.3833891668163061
  0.7296466973886333  0.2411674347158216  0.3833891668163061
  0.6927803379416286  0.3195084485407063  0.3833891668163061
  0.6559139784946241  0.3978494623655912  0.3833891668163061
  0.6190476190476194  0.4761904761904759  0.3833891668163061
  0.5821812596006148  0.5545314900153607  0.3833891668163061
  0.5453149001536103  0.6328725038402456  0.3833891668163061
  0.5084485407066057  0.7112135176651303  0.3833891668163061
  0.4715821812596011  0.7895545314900152  0.3833891668163061
  0.4347158218125965  0.8678955453148998  0.3833891668163061
  0.3978494623655920  0.9462365591397847  0.3833891668163061
  0.8817204301075271  0.0430107526881718  0.3833891668163061
  0.8448540706605226  0.1213517665130566  0.3833891668163061
  0.8079877112135180  0.1996927803379414  0.3833891668163061
  0.7711213517665134  0.2780337941628262  0.3833891668163061
  0.7342549923195087  0.3563748079877109  0.3833891668163061
  0.6973886328725043  0.4347158218125957  0.3833891668163061
  0.6605222734254995  0.5130568356374804  0.3833891668163061
  0.6236559139784951  0.5913978494623654  0.3833891668163061
  0.5867895545314904  0.6697388632872501  0.3833891668163061
  0.5499231950844858  0.7480798771121350  0.3833891668163061
  0.5130568356374814  0.8264208909370196  0.3833891668163061
  0.4761904761904767  0.9047619047619045  0.3833891668163061
  0.4393241167434722  0.9831029185867894  0.3833891668163061
  0.9600614439324120  0.0015360983102916  0.3833891668163061
  0.9231950844854073  0.0798771121351764  0.3833891668163061
  0.8863287250384028  0.1582181259600611  0.3833891668163061
  0.8494623655913981  0.2365591397849460  0.3833891668163061
  0.8125960061443935  0.3149001536098308  0.3833891668163061
  0.7757296466973890  0.3932411674347155  0.3833891668163061
  0.7388632872503844  0.4715821812596003  0.3833891668163061
  0.7019969278033797  0.5499231950844850  0.3833891668163061
  0.6651305683563752  0.6282642089093698  0.3833891668163061
  0.6282642089093708  0.7066052227342547  0.3833891668163061
  0.5913978494623661  0.7849462365591394  0.3833891668163061
  0.5545314900153614  0.8632872503840243  0.3833891668163061
  0.5176651305683569  0.9416282642089092  0.3833891668163061
  0.9646697388632874  0.1167434715821809  0.3833891668163061
  0.9278033794162830  0.1950844854070657  0.3833891668163061
  0.8909370199692782  0.2734254992319505  0.3833891668163061
  0.8540706605222738  0.3517665130568353  0.3833891668163061
  0.8172043010752692  0.4301075268817201  0.3833891668163061
  0.7803379416282646  0.5084485407066048  0.3833891668163061
  0.7434715821812599  0.5867895545314895  0.3833891668163061
  0.7066052227342555  0.6651305683563745  0.3833891668163061
  0.6697388632872510  0.7434715821812593  0.3833891668163061
  0.6328725038402463  0.8218125960061439  0.3833891668163061
  0.5960061443932416  0.9001536098310288  0.3833891668163061
  0.5591397849462371  0.9784946236559137  0.3833891668163061
  0.9692780337941631  0.2319508448540702  0.3833891668163061
  0.9324116743471584  0.3102918586789550  0.3833891668163061
  0.8955453149001540  0.3886328725038398  0.3833891668163061
  0.8586789554531493  0.4669738863287247  0.3833891668163061
  0.8218125960061448  0.5453149001536094  0.3833891668163061
  0.7849462365591403  0.6236559139784942  0.3833891668163061
  0.7480798771121356  0.7019969278033791  0.3833891668163061
  0.7112135176651311  0.7803379416282636  0.3833891668163061
  0.6743471582181265  0.8586789554531487  0.3833891668163061
  0.6374807987711218  0.9370199692780334  0.3833891668163061
  0.9738863287250387  0.3471582181259598  0.3833891668163061
  0.9370199692780342  0.4254992319508445  0.3833891668163061
  0.9001536098310298  0.5038402457757293  0.3833891668163061
  0.8632872503840250  0.5821812596006140  0.3833891668163061
  0.8264208909370205  0.6605222734254990  0.3833891668163061
  0.7895545314900159  0.7388632872503835  0.3833891668163061
  0.7526881720430113  0.8172043010752684  0.3833891668163061
  0.7158218125960067  0.8955453149001534  0.3833891668163061
  0.6789554531490022  0.9738863287250380  0.3833891668163061
  0.9784946236559144  0.4623655913978491  0.3833891668163061
  0.9416282642089097  0.5407066052227337  0.3833891668163061
  0.9047619047619051  0.6190476190476186  0.3833891668163061
  0.8678955453149007  0.6973886328725033  0.3833891668163061
  0.8310291858678960  0.7757296466973882  0.3833891668163061
  0.7941628264208912  0.8540706605222729  0.3833891668163061
  0.7572964669738869  0.9324116743471578  0.3833891668163061
  0.9831029185867900  0.5775729646697384  0.3833891668163061
  0.9462365591397853  0.6559139784946231  0.3833891668163061
  0.9093701996927809  0.7342549923195081  0.3833891668163061
  0.8725038402457764  0.8125960061443928  0.3833891668163061
  0.8356374807987716  0.8909370199692775  0.3833891668163061
  0.7987711213517672  0.9692780337941626  0.3833891668163061
  0.9877112135176656  0.6927803379416279  0.3833891668163061
  0.9508448540706612  0.7711213517665126  0.3833891668163061
  0.9139784946236564  0.8494623655913974  0.3833891668163061
  0.8771121351766519  0.9278033794162823  0.3833891668163061
  0.9923195084485412  0.8079877112135172  0.3833891668163061
  0.9554531490015368  0.8863287250384019  0.3833891668163061
  0.9185867895545320  0.9646697388632867  0.3833891668163061
  0.9969278033794170  0.9231950844854067  0.3833891668163061
  0.0384024577572965  0.0015360983102919  0.6757517046114809
  0.0752688172043011  0.0430107526881721  0.6757517046114809
  0.0337941628264208  0.1213517665130569  0.6757517046114809
  0.1536098310291858  0.0061443932411675  0.6757517046114809
  0.1121351766513056  0.0844854070660523  0.6757517046114809
  0.0706605222734254  0.1628264208909371  0.6757517046114809
  0.0291858678955452  0.2411674347158219  0.6757517046114809
  0.1904761904761904  0.0476190476190477  0.6757517046114809
  0.1490015360983102  0.1259600614439325  0.6757517046114809
  0.1075268817204300  0.2043010752688173  0.6757517046114809
  0.0660522273425498  0.2826420890937021  0.6757517046114809
  0.0245775729646696  0.3609831029185869  0.6757517046114809
  0.2688172043010752  0.0107526881720431  0.6757517046114809
  0.2273425499231951  0.0890937019969279  0.6757517046114809
  0.1858678955453148  0.1674347158218127  0.6757517046114809
  0.1443932411674346  0.2457757296466975  0.6757517046114809
  0.1029185867895544  0.3241167434715824  0.6757517046114809
  0.0614439324116742  0.4024577572964671  0.6757517046114809
  0.0199692780337939  0.4807987711213519  0.6757517046114809
  0.3056835637480798  0.0522273425499233  0.6757517046114809
  0.2642089093701996  0.1305683563748081  0.6757517046114809
  0.2227342549923194  0.2089093701996929  0.6757517046114809
  0.1812596006144392  0.2872503840245776  0.6757517046114809
  0.1397849462365589  0.3655913978494625  0.6757517046114809
  0.0983102918586787  0.4439324116743473  0.6757517046114809
  0.0568356374807985  0.5222734254992321  0.6757517046114809
  0.0153609831029183  0.6006144393241170  0.6757517046114809
  0.3840245775729647  0.0153609831029187  0.6757517046114809
  0.3425499231950844  0.0937019969278035  0.6757517046114809
  0.3010752688172041  0.1720430107526883  0.6757517046114809
  0.2596006144393240  0.2503840245775731  0.6757517046114809
  0.2181259600614438  0.3287250384024579  0.6757517046114809
  0.1766513056835635  0.4070660522273427  0.6757517046114809
  0.1351766513056834  0.4854070660522276  0.6757517046114809
  0.0937019969278031  0.5637480798771123  0.6757517046114809
  0.0522273425499229  0.6420890937019970  0.6757517046114809
  0.0107526881720428  0.7204301075268820  0.6757517046114809
  0.4208909370199692  0.0568356374807990  0.6757517046114809
  0.3794162826420890  0.1351766513056837  0.6757517046114809
  0.3379416282642088  0.2135176651305686  0.6757517046114809
  0.2964669738863286  0.2918586789554534  0.6757517046114809
  0.2549923195084484  0.3701996927803382  0.6757517046114809
  0.2135176651305681  0.4485407066052229  0.6757517046114809
  0.1720430107526880  0.5268817204301078  0.6757517046114809
  0.1305683563748078  0.6052227342549926  0.6757517046114809
  0.0890937019969276  0.6835637480798774  0.6757517046114809
  0.0476190476190473  0.7619047619047623  0.6757517046114809
  0.0061443932411671  0.8402457757296470  0.6757517046114809
  0.4992319508448539  0.0199692780337944  0.6757517046114809
  0.4577572964669738  0.0983102918586791  0.6757517046114809
  0.4162826420890935  0.1766513056835639  0.6757517046114809
  0.3748079877112133  0.2549923195084487  0.6757517046114809
  0.3333333333333331  0.3333333333333335  0.6757517046114809